c
c Generated WCNF file
c
p wcnf 232 1093 49020
49020 22 0
49020 -23 1 0
49020 -23 2 0
49020 23 -1 -2 0
49020 -24 1 0
49020 -24 3 0
49020 24 -1 -3 0
49020 -25 1 0
49020 -25 4 0
49020 25 -1 -4 0
49020 -26 1 0
49020 -26 5 0
49020 26 -1 -5 0
49020 -27 1 0
49020 -27 6 0
49020 27 -1 -6 0
49020 -28 1 0
49020 -28 7 0
49020 28 -1 -7 0
49020 -29 1 0
49020 -29 8 0
49020 29 -1 -8 0
49020 -30 1 0
49020 -30 9 0
49020 30 -1 -9 0
49020 -31 1 0
49020 -31 10 0
49020 31 -1 -10 0
49020 -32 1 0
49020 -32 11 0
49020 32 -1 -11 0
49020 -33 1 0
49020 -33 12 0
49020 33 -1 -12 0
49020 -34 1 0
49020 -34 13 0
49020 34 -1 -13 0
49020 -35 1 0
49020 -35 14 0
49020 35 -1 -14 0
49020 -36 1 0
49020 -36 15 0
49020 36 -1 -15 0
49020 -37 1 0
49020 -37 16 0
49020 37 -1 -16 0
49020 -38 1 0
49020 -38 17 0
49020 38 -1 -17 0
49020 -39 1 0
49020 -39 18 0
49020 39 -1 -18 0
49020 -40 1 0
49020 -40 19 0
49020 40 -1 -19 0
49020 -41 1 0
49020 -41 20 0
49020 41 -1 -20 0
49020 -42 1 0
49020 -42 21 0
49020 42 -1 -21 0
49020 -43 2 0
49020 -43 3 0
49020 43 -2 -3 0
49020 -44 2 0
49020 -44 4 0
49020 44 -2 -4 0
49020 -45 2 0
49020 -45 5 0
49020 45 -2 -5 0
49020 -46 2 0
49020 -46 6 0
49020 46 -2 -6 0
49020 -47 2 0
49020 -47 7 0
49020 47 -2 -7 0
49020 -48 2 0
49020 -48 8 0
49020 48 -2 -8 0
49020 -49 2 0
49020 -49 9 0
49020 49 -2 -9 0
49020 -50 2 0
49020 -50 10 0
49020 50 -2 -10 0
49020 -51 2 0
49020 -51 11 0
49020 51 -2 -11 0
49020 -52 2 0
49020 -52 12 0
49020 52 -2 -12 0
49020 -53 2 0
49020 -53 13 0
49020 53 -2 -13 0
49020 -54 2 0
49020 -54 14 0
49020 54 -2 -14 0
49020 -55 2 0
49020 -55 15 0
49020 55 -2 -15 0
49020 -56 2 0
49020 -56 16 0
49020 56 -2 -16 0
49020 -57 2 0
49020 -57 17 0
49020 57 -2 -17 0
49020 -58 2 0
49020 -58 18 0
49020 58 -2 -18 0
49020 -59 2 0
49020 -59 19 0
49020 59 -2 -19 0
49020 -60 2 0
49020 -60 20 0
49020 60 -2 -20 0
49020 -61 2 0
49020 -61 21 0
49020 61 -2 -21 0
49020 -62 3 0
49020 -62 4 0
49020 62 -3 -4 0
49020 -63 3 0
49020 -63 5 0
49020 63 -3 -5 0
49020 -64 3 0
49020 -64 6 0
49020 64 -3 -6 0
49020 -65 3 0
49020 -65 7 0
49020 65 -3 -7 0
49020 -66 3 0
49020 -66 8 0
49020 66 -3 -8 0
49020 -67 3 0
49020 -67 9 0
49020 67 -3 -9 0
49020 -68 3 0
49020 -68 10 0
49020 68 -3 -10 0
49020 -69 3 0
49020 -69 11 0
49020 69 -3 -11 0
49020 -70 3 0
49020 -70 12 0
49020 70 -3 -12 0
49020 -71 3 0
49020 -71 13 0
49020 71 -3 -13 0
49020 -72 3 0
49020 -72 14 0
49020 72 -3 -14 0
49020 -73 3 0
49020 -73 15 0
49020 73 -3 -15 0
49020 -74 3 0
49020 -74 16 0
49020 74 -3 -16 0
49020 -75 3 0
49020 -75 17 0
49020 75 -3 -17 0
49020 -76 3 0
49020 -76 18 0
49020 76 -3 -18 0
49020 -77 3 0
49020 -77 19 0
49020 77 -3 -19 0
49020 -78 3 0
49020 -78 20 0
49020 78 -3 -20 0
49020 -79 3 0
49020 -79 21 0
49020 79 -3 -21 0
49020 -80 4 0
49020 -80 5 0
49020 80 -4 -5 0
49020 -81 4 0
49020 -81 6 0
49020 81 -4 -6 0
49020 -82 4 0
49020 -82 7 0
49020 82 -4 -7 0
49020 -83 4 0
49020 -83 8 0
49020 83 -4 -8 0
49020 -84 4 0
49020 -84 9 0
49020 84 -4 -9 0
49020 -85 4 0
49020 -85 10 0
49020 85 -4 -10 0
49020 -86 4 0
49020 -86 11 0
49020 86 -4 -11 0
49020 -87 4 0
49020 -87 12 0
49020 87 -4 -12 0
49020 -88 4 0
49020 -88 13 0
49020 88 -4 -13 0
49020 -89 4 0
49020 -89 14 0
49020 89 -4 -14 0
49020 -90 4 0
49020 -90 15 0
49020 90 -4 -15 0
49020 -91 4 0
49020 -91 16 0
49020 91 -4 -16 0
49020 -92 4 0
49020 -92 17 0
49020 92 -4 -17 0
49020 -93 4 0
49020 -93 18 0
49020 93 -4 -18 0
49020 -94 4 0
49020 -94 19 0
49020 94 -4 -19 0
49020 -95 4 0
49020 -95 20 0
49020 95 -4 -20 0
49020 -96 4 0
49020 -96 21 0
49020 96 -4 -21 0
49020 -97 5 0
49020 -97 6 0
49020 97 -5 -6 0
49020 -98 5 0
49020 -98 7 0
49020 98 -5 -7 0
49020 -99 5 0
49020 -99 8 0
49020 99 -5 -8 0
49020 -100 5 0
49020 -100 9 0
49020 100 -5 -9 0
49020 -101 5 0
49020 -101 10 0
49020 101 -5 -10 0
49020 -102 5 0
49020 -102 11 0
49020 102 -5 -11 0
49020 -103 5 0
49020 -103 12 0
49020 103 -5 -12 0
49020 -104 5 0
49020 -104 13 0
49020 104 -5 -13 0
49020 -105 5 0
49020 -105 14 0
49020 105 -5 -14 0
49020 -106 5 0
49020 -106 15 0
49020 106 -5 -15 0
49020 -107 5 0
49020 -107 16 0
49020 107 -5 -16 0
49020 -108 5 0
49020 -108 17 0
49020 108 -5 -17 0
49020 -109 5 0
49020 -109 18 0
49020 109 -5 -18 0
49020 -110 5 0
49020 -110 19 0
49020 110 -5 -19 0
49020 -111 5 0
49020 -111 20 0
49020 111 -5 -20 0
49020 -112 5 0
49020 -112 21 0
49020 112 -5 -21 0
49020 -113 6 0
49020 -113 7 0
49020 113 -6 -7 0
49020 -114 6 0
49020 -114 8 0
49020 114 -6 -8 0
49020 -115 6 0
49020 -115 9 0
49020 115 -6 -9 0
49020 -116 6 0
49020 -116 10 0
49020 116 -6 -10 0
49020 -117 6 0
49020 -117 11 0
49020 117 -6 -11 0
49020 -118 6 0
49020 -118 12 0
49020 118 -6 -12 0
49020 -119 6 0
49020 -119 13 0
49020 119 -6 -13 0
49020 -120 6 0
49020 -120 14 0
49020 120 -6 -14 0
49020 -121 6 0
49020 -121 15 0
49020 121 -6 -15 0
49020 -122 6 0
49020 -122 16 0
49020 122 -6 -16 0
49020 -123 6 0
49020 -123 17 0
49020 123 -6 -17 0
49020 -124 6 0
49020 -124 18 0
49020 124 -6 -18 0
49020 -125 6 0
49020 -125 19 0
49020 125 -6 -19 0
49020 -126 6 0
49020 -126 20 0
49020 126 -6 -20 0
49020 -127 6 0
49020 -127 21 0
49020 127 -6 -21 0
49020 -128 7 0
49020 -128 8 0
49020 128 -7 -8 0
49020 -129 7 0
49020 -129 9 0
49020 129 -7 -9 0
49020 -130 7 0
49020 -130 10 0
49020 130 -7 -10 0
49020 -131 7 0
49020 -131 11 0
49020 131 -7 -11 0
49020 -132 7 0
49020 -132 12 0
49020 132 -7 -12 0
49020 -133 7 0
49020 -133 13 0
49020 133 -7 -13 0
49020 -134 7 0
49020 -134 14 0
49020 134 -7 -14 0
49020 -135 7 0
49020 -135 15 0
49020 135 -7 -15 0
49020 -136 7 0
49020 -136 16 0
49020 136 -7 -16 0
49020 -137 7 0
49020 -137 17 0
49020 137 -7 -17 0
49020 -138 7 0
49020 -138 18 0
49020 138 -7 -18 0
49020 -139 7 0
49020 -139 19 0
49020 139 -7 -19 0
49020 -140 7 0
49020 -140 20 0
49020 140 -7 -20 0
49020 -141 7 0
49020 -141 21 0
49020 141 -7 -21 0
49020 -142 8 0
49020 -142 9 0
49020 142 -8 -9 0
49020 -143 8 0
49020 -143 10 0
49020 143 -8 -10 0
49020 -144 8 0
49020 -144 11 0
49020 144 -8 -11 0
49020 -145 8 0
49020 -145 12 0
49020 145 -8 -12 0
49020 -146 8 0
49020 -146 13 0
49020 146 -8 -13 0
49020 -147 8 0
49020 -147 14 0
49020 147 -8 -14 0
49020 -148 8 0
49020 -148 15 0
49020 148 -8 -15 0
49020 -149 8 0
49020 -149 16 0
49020 149 -8 -16 0
49020 -150 8 0
49020 -150 17 0
49020 150 -8 -17 0
49020 -151 8 0
49020 -151 18 0
49020 151 -8 -18 0
49020 -152 8 0
49020 -152 19 0
49020 152 -8 -19 0
49020 -153 8 0
49020 -153 20 0
49020 153 -8 -20 0
49020 -154 8 0
49020 -154 21 0
49020 154 -8 -21 0
49020 -155 9 0
49020 -155 10 0
49020 155 -9 -10 0
49020 -156 9 0
49020 -156 11 0
49020 156 -9 -11 0
49020 -157 9 0
49020 -157 12 0
49020 157 -9 -12 0
49020 -158 9 0
49020 -158 13 0
49020 158 -9 -13 0
49020 -159 9 0
49020 -159 14 0
49020 159 -9 -14 0
49020 -160 9 0
49020 -160 15 0
49020 160 -9 -15 0
49020 -161 9 0
49020 -161 16 0
49020 161 -9 -16 0
49020 -162 9 0
49020 -162 17 0
49020 162 -9 -17 0
49020 -163 9 0
49020 -163 18 0
49020 163 -9 -18 0
49020 -164 9 0
49020 -164 19 0
49020 164 -9 -19 0
49020 -165 9 0
49020 -165 20 0
49020 165 -9 -20 0
49020 -166 9 0
49020 -166 21 0
49020 166 -9 -21 0
49020 -167 10 0
49020 -167 11 0
49020 167 -10 -11 0
49020 -168 10 0
49020 -168 12 0
49020 168 -10 -12 0
49020 -169 10 0
49020 -169 13 0
49020 169 -10 -13 0
49020 -170 10 0
49020 -170 14 0
49020 170 -10 -14 0
49020 -171 10 0
49020 -171 15 0
49020 171 -10 -15 0
49020 -172 10 0
49020 -172 16 0
49020 172 -10 -16 0
49020 -173 10 0
49020 -173 17 0
49020 173 -10 -17 0
49020 -174 10 0
49020 -174 18 0
49020 174 -10 -18 0
49020 -175 10 0
49020 -175 19 0
49020 175 -10 -19 0
49020 -176 10 0
49020 -176 20 0
49020 176 -10 -20 0
49020 -177 10 0
49020 -177 21 0
49020 177 -10 -21 0
49020 -178 11 0
49020 -178 12 0
49020 178 -11 -12 0
49020 -179 11 0
49020 -179 13 0
49020 179 -11 -13 0
49020 -180 11 0
49020 -180 14 0
49020 180 -11 -14 0
49020 -181 11 0
49020 -181 15 0
49020 181 -11 -15 0
49020 -182 11 0
49020 -182 16 0
49020 182 -11 -16 0
49020 -183 11 0
49020 -183 17 0
49020 183 -11 -17 0
49020 -184 11 0
49020 -184 18 0
49020 184 -11 -18 0
49020 -185 11 0
49020 -185 19 0
49020 185 -11 -19 0
49020 -186 11 0
49020 -186 20 0
49020 186 -11 -20 0
49020 -187 11 0
49020 -187 21 0
49020 187 -11 -21 0
49020 -188 12 0
49020 -188 13 0
49020 188 -12 -13 0
49020 -189 12 0
49020 -189 14 0
49020 189 -12 -14 0
49020 -190 12 0
49020 -190 15 0
49020 190 -12 -15 0
49020 -191 12 0
49020 -191 16 0
49020 191 -12 -16 0
49020 -192 12 0
49020 -192 17 0
49020 192 -12 -17 0
49020 -193 12 0
49020 -193 18 0
49020 193 -12 -18 0
49020 -194 12 0
49020 -194 19 0
49020 194 -12 -19 0
49020 -195 12 0
49020 -195 20 0
49020 195 -12 -20 0
49020 -196 12 0
49020 -196 21 0
49020 196 -12 -21 0
49020 -197 13 0
49020 -197 14 0
49020 197 -13 -14 0
49020 -198 13 0
49020 -198 15 0
49020 198 -13 -15 0
49020 -199 13 0
49020 -199 16 0
49020 199 -13 -16 0
49020 -200 13 0
49020 -200 17 0
49020 200 -13 -17 0
49020 -201 13 0
49020 -201 18 0
49020 201 -13 -18 0
49020 -202 13 0
49020 -202 19 0
49020 202 -13 -19 0
49020 -203 13 0
49020 -203 20 0
49020 203 -13 -20 0
49020 -204 13 0
49020 -204 21 0
49020 204 -13 -21 0
49020 -205 14 0
49020 -205 15 0
49020 205 -14 -15 0
49020 -206 14 0
49020 -206 16 0
49020 206 -14 -16 0
49020 -207 14 0
49020 -207 17 0
49020 207 -14 -17 0
49020 -208 14 0
49020 -208 18 0
49020 208 -14 -18 0
49020 -209 14 0
49020 -209 19 0
49020 209 -14 -19 0
49020 -210 14 0
49020 -210 20 0
49020 210 -14 -20 0
49020 -211 14 0
49020 -211 21 0
49020 211 -14 -21 0
49020 -212 15 0
49020 -212 16 0
49020 212 -15 -16 0
49020 -213 15 0
49020 -213 17 0
49020 213 -15 -17 0
49020 -214 15 0
49020 -214 18 0
49020 214 -15 -18 0
49020 -215 15 0
49020 -215 19 0
49020 215 -15 -19 0
49020 -216 15 0
49020 -216 20 0
49020 216 -15 -20 0
49020 -217 15 0
49020 -217 21 0
49020 217 -15 -21 0
49020 -218 16 0
49020 -218 17 0
49020 218 -16 -17 0
49020 -219 16 0
49020 -219 18 0
49020 219 -16 -18 0
49020 -220 16 0
49020 -220 19 0
49020 220 -16 -19 0
49020 -221 16 0
49020 -221 20 0
49020 221 -16 -20 0
49020 -222 16 0
49020 -222 21 0
49020 222 -16 -21 0
49020 -223 17 0
49020 -223 18 0
49020 223 -17 -18 0
49020 -224 17 0
49020 -224 19 0
49020 224 -17 -19 0
49020 -225 17 0
49020 -225 20 0
49020 225 -17 -20 0
49020 -226 17 0
49020 -226 21 0
49020 226 -17 -21 0
49020 -227 18 0
49020 -227 19 0
49020 227 -18 -19 0
49020 -228 18 0
49020 -228 20 0
49020 228 -18 -20 0
49020 -229 18 0
49020 -229 21 0
49020 229 -18 -21 0
49020 -230 19 0
49020 -230 20 0
49020 230 -19 -20 0
49020 -231 19 0
49020 -231 21 0
49020 231 -19 -21 0
49020 -232 20 0
49020 -232 21 0
49020 232 -20 -21 0
25320 1 0
49010 -1 0
67390 23 0
49010 -23 0
63190 24 0
49010 -24 0
50254 25 0
49010 -25 0
59484 26 0
49010 -26 0
56532 27 0
49010 -27 0
48884 28 0
49010 -28 0
61012 29 0
49010 -29 0
45322 30 0
49010 -30 0
50540 31 0
49010 -31 0
49266 32 0
49010 -32 0
56640 33 0
49010 -33 0
55832 34 0
49010 -34 0
47974 35 0
49010 -35 0
40870 36 0
49010 -36 0
41522 37 0
49010 -37 0
53828 38 0
49010 -38 0
50828 39 0
49010 -39 0
49570 40 0
49010 -40 0
48988 41 0
49010 -41 0
50186 42 0
49010 -42 0
14910 2 0
49010 -2 0
45320 43 0
49010 -43 0
40056 44 0
49010 -44 0
50714 45 0
49010 -45 0
52982 46 0
49010 -46 0
60478 47 0
49010 -47 0
49250 48 0
49010 -48 0
53990 49 0
49010 -49 0
52596 50 0
49010 -50 0
55864 51 0
49010 -51 0
45596 52 0
49010 -52 0
51908 53 0
49010 -53 0
54422 54 0
49010 -54 0
47598 55 0
49010 -55 0
47996 56 0
49010 -56 0
48746 57 0
49010 -57 0
55350 58 0
49010 -58 0
47586 59 0
49010 -59 0
49376 60 0
49010 -60 0
49402 61 0
49010 -61 0
26320 3 0
49010 -3 0
46594 62 0
49010 -62 0
52654 63 0
49010 -63 0
60634 64 0
49010 -64 0
49282 65 0
49010 -65 0
50256 66 0
49010 -66 0
56896 67 0
49010 -67 0
52354 68 0
49010 -68 0
53462 69 0
49010 -69 0
43838 70 0
49010 -70 0
51194 71 0
49010 -71 0
56260 72 0
49010 -72 0
49826 73 0
49010 -73 0
47566 74 0
49010 -74 0
49908 75 0
49010 -75 0
47206 76 0
49010 -76 0
49898 77 0
49010 -77 0
47958 78 0
49010 -78 0
49122 79 0
49010 -79 0
23834 4 0
49010 -4 0
49324 80 0
49010 -80 0
54402 81 0
49010 -81 0
52348 82 0
49010 -82 0
58884 83 0
49010 -83 0
57508 84 0
49010 -84 0
38254 85 0
49010 -85 0
50954 86 0
49010 -86 0
44906 87 0
49010 -87 0
54090 88 0
49010 -88 0
52696 89 0
49010 -89 0
40512 90 0
49010 -90 0
48860 91 0
49010 -91 0
45080 92 0
49010 -92 0
48720 93 0
49010 -93 0
48526 94 0
49010 -94 0
49630 95 0
49010 -95 0
51138 96 0
49010 -96 0
29959 5 0
49010 -5 0
32830 97 0
49010 -97 0
51178 98 0
49010 -98 0
38524 99 0
49010 -99 0
46556 100 0
49010 -100 0
46264 101 0
49010 -101 0
45674 102 0
49010 -102 0
44526 103 0
49010 -103 0
43354 104 0
49010 -104 0
54552 105 0
49010 -105 0
50706 106 0
49010 -106 0
61398 107 0
49010 -107 0
37888 108 0
49010 -108 0
42814 109 0
49010 -109 0
50630 110 0
49010 -110 0
48820 111 0
49010 -111 0
47274 112 0
49010 -112 0
35580 6 0
49010 -6 0
47194 113 0
49010 -113 0
32598 114 0
49010 -114 0
50046 115 0
49010 -115 0
50796 116 0
49010 -116 0
42268 117 0
49010 -117 0
44958 118 0
49010 -118 0
46118 119 0
49010 -119 0
50548 120 0
49010 -120 0
52230 121 0
49010 -121 0
57552 122 0
49010 -122 0
43026 123 0
49010 -123 0
44704 124 0
49010 -124 0
50130 125 0
49010 -125 0
48880 126 0
49010 -126 0
46266 127 0
49010 -127 0
68291 7 0
49010 -7 0
47586 128 0
49010 -128 0
46634 129 0
49010 -129 0
46606 130 0
49010 -130 0
44350 131 0
49010 -131 0
54944 132 0
49010 -132 0
46114 133 0
49010 -133 0
40506 134 0
49010 -134 0
49072 135 0
49010 -135 0
48376 136 0
49010 -136 0
51992 137 0
49010 -137 0
54392 138 0
49010 -138 0
47764 139 0
49010 -139 0
49426 140 0
49010 -140 0
49010 141 0
49010 -141 0
42138 8 0
49010 -8 0
49610 142 0
49010 -142 0
52768 143 0
49010 -143 0
41348 144 0
49010 -144 0
48668 145 0
49010 -145 0
44312 146 0
49010 -146 0
47326 147 0
49010 -147 0
55216 148 0
49010 -148 0
51216 149 0
49010 -149 0
50202 150 0
49010 -150 0
44872 151 0
49010 -151 0
49714 152 0
49010 -152 0
48322 153 0
49010 -153 0
47666 154 0
49010 -154 0
45535 9 0
49010 -9 0
46704 155 0
49010 -155 0
53036 156 0
49010 -156 0
61718 157 0
49010 -157 0
42734 158 0
49010 -158 0
42978 159 0
49010 -159 0
46892 160 0
49010 -160 0
46898 161 0
49010 -161 0
49402 162 0
49010 -162 0
54510 163 0
49010 -163 0
46752 164 0
49010 -164 0
50990 165 0
49010 -165 0
50690 166 0
49010 -166 0
49832 10 0
49010 -10 0
37812 167 0
49010 -167 0
53876 168 0
49010 -168 0
41198 169 0
49010 -169 0
42572 170 0
49010 -170 0
48788 171 0
49010 -171 0
49924 172 0
49010 -172 0
46182 173 0
49010 -173 0
50812 174 0
49010 -174 0
45764 175 0
49010 -175 0
51316 176 0
49010 -176 0
51754 177 0
49010 -177 0
52038 11 0
49010 -11 0
58890 178 0
49010 -178 0
38924 179 0
49010 -179 0
37732 180 0
49010 -180 0
55314 181 0
49010 -181 0
46454 182 0
49010 -182 0
53908 183 0
49010 -183 0
48454 184 0
49010 -184 0
46498 185 0
49010 -185 0
50010 186 0
49010 -186 0
51026 187 0
49010 -187 0
23557 12 0
49010 -12 0
54186 188 0
49010 -188 0
58772 189 0
49010 -189 0
50624 190 0
49010 -190 0
58030 191 0
49010 -191 0
39870 192 0
49010 -192 0
41494 193 0
49010 -193 0
51550 194 0
49010 -194 0
47860 195 0
49010 -195 0
46378 196 0
49010 -196 0
54977 13 0
49010 -13 0
40120 197 0
49010 -197 0
55486 198 0
49010 -198 0
49902 199 0
49010 -199 0
48860 200 0
49010 -200 0
50460 201 0
49010 -201 0
46172 202 0
49010 -202 0
50724 203 0
49010 -203 0
50410 204 0
49010 -204 0
67121 14 0
49010 -14 0
55126 205 0
49010 -205 0
44180 206 0
49010 -206 0
55512 207 0
49010 -207 0
55036 208 0
49010 -208 0
44352 209 0
49010 -209 0
51254 210 0
49010 -210 0
51810 211 0
49010 -211 0
38003 15 0
49010 -15 0
48164 212 0
49010 -212 0
46854 213 0
49010 -213 0
51742 214 0
49010 -214 0
49324 215 0
49010 -215 0
49256 216 0
49010 -216 0
49626 217 0
49010 -217 0
47900 16 0
49010 -16 0
60322 218 0
49010 -218 0
52466 219 0
49010 -219 0
47806 220 0
49010 -220 0
49090 221 0
49010 -221 0
51250 222 0
49010 -222 0
33307 17 0
49010 -17 0
46950 223 0
49010 -223 0
49098 224 0
49010 -224 0
49902 225 0
49010 -225 0
48002 226 0
49010 -226 0
31763 18 0
49010 -18 0
53090 227 0
49010 -227 0
46766 228 0
49010 -228 0
47106 229 0
49010 -229 0
53556 19 0
49010 -19 0
50636 230 0
49010 -230 0
50634 231 0
49010 -231 0
45807 20 0
49010 -20 0
48058 232 0
49010 -232 0
45482 21 0
49010 -21 0
